#######################################
### Exact MIP solver for the HHCRSP ###
#######################################
-- Instance file: new-instances/HHCRSP_75_15_98_0.4_C_RC.txt
-- Max threads: 4
-- Time limit: 999999 seconds
-- Use initial solution: No
Trivial flow violations prevented generating 19094 variables.
Model exported.
Version identifier: 20.1.0.0 | 2020-11-10 | 9bedb6d68
CPXPARAM_Threads                                 4
CPXPARAM_TimeLimit                               999999
Parallel mode: deterministic, using up to 4 threads for concurrent optimization:
 * Starting dual Simplex on 1 thread...
 * Starting Barrier on 3 threads...
Tried aggregator 1 time.
LP Presolve eliminated 2772 rows and 583 columns.
Reduced LP has 18708 rows, 18063 columns, and 174300 nonzeros.
Presolve time = 0.08 sec. (48.50 ticks)
Symmetry aggregator did 18438 additional substitutions.

Iteration log . . .
Iteration:     1   Dual objective     =             0.000000
Iteration:   315   Dual objective     =           148.000000

Dual crossover.
  Dual:  Fixing 164 variables.
      163 DMoves:  Infeasibility  6.08402277e-14  Objective  1.48037447e+02
        0 DMoves:  Infeasibility  3.19189170e-14  Objective  1.48037447e+02
  Dual:  Pushed 12, exchanged 152.
  Primal:  Fixing 57 variables.
       56 PMoves:  Infeasibility  4.44089210e-16  Objective  1.48037447e+02
        0 PMoves:  Infeasibility  5.55111512e-16  Objective  1.48037447e+02
  Primal:  Pushed 29, exchanged 28.

Dual simplex solved model.


Solution status from MIP model:
-- Processing time: 0.158 sec.
-- Memory used: 81.6348 MB
-- Best bound: inf
-- Obj value: 148.037
-- Gap: inf%
-- Total distance: 444.112
-- Total tardiness: 0
-- Largest tardiness: 0
